language ESSENCE' 1.0
$ minion Nodes: 6
$ minion TotalTime: 0.001465
$ Savile Row TotalTime: 0.522
letting x_SetOccurrence be [false, false, true, false, false, false, false, false, false, false, false, false, false, false, true;int(0..14)]
